;; produced by cvc4_16.drv ;;
(set-logic AUFFPBVFPDTNIRA)
(set-info :source |VC generated by SPARK 2014|)
(set-info :smt-lib-version 2.5)
(set-info :category industrial)
(set-info :status unknown)
;;; generated by SMT-LIB2 driver
;;; SMT-LIB2 driver: bit-vectors, common part
;;; SMT-LIB2: integer arithmetic
(declare-datatypes () ((tuple0 (Tuple0))))
(declare-sort us_private 0)

(declare-fun private__bool_eq (us_private us_private) Bool)

(declare-const us_null_ext__ us_private)

(declare-sort us_type_of_heap 0)

(declare-datatypes ()
((us_type_of_heap__ref
 (mk___type_of_heap__ref (us_type_of_heap__content us_type_of_heap)))))
(declare-sort us_image 0)

(declare-datatypes () ((int__ref (mk_int__ref (int__content Int)))))
(declare-datatypes () ((bool__ref (mk_bool__ref (bool__content Bool)))))
(declare-datatypes () ((real__ref (mk_real__ref (real__content Real)))))
(declare-datatypes ()
((us_private__ref (mk___private__ref (us_private__content us_private)))))
(define-fun int__ref___projection ((a int__ref)) Int (int__content a))

(define-fun bool__ref___projection ((a bool__ref)) Bool (bool__content a))

(define-fun real__ref___projection ((a real__ref)) Real (real__content a))

(define-fun us_private__ref___projection ((a us_private__ref)) us_private
  (us_private__content a))

(declare-fun nth ((_ BitVec 32) Int) Bool)

(declare-fun lsr ((_ BitVec 32) Int) (_ BitVec 32))

(declare-fun asr ((_ BitVec 32) Int) (_ BitVec 32))

(declare-fun lsl ((_ BitVec 32) Int) (_ BitVec 32))

(declare-fun rotate_right1 ((_ BitVec 32) Int) (_ BitVec 32))

(declare-fun rotate_left1 ((_ BitVec 32) Int) (_ BitVec 32))

(declare-fun pow2 (Int) Int)

(define-fun to_int1 ((x (_ BitVec 32))) Int (ite (bvsge x (_ bv0 32))
                                            (bv2nat x)
                                            (- (- 4294967296 (bv2nat x)))))

(define-fun uint_in_range ((i Int)) Bool (and (<= 0 i) (<= i 4294967295)))

;; lsr_bv_is_lsr
  (assert
  (forall ((x (_ BitVec 32)) (n (_ BitVec 32)))
  (= (bvlshr x n) (lsr x (bv2nat n)))))

;; asr_bv_is_asr
  (assert
  (forall ((x (_ BitVec 32)) (n (_ BitVec 32)))
  (= (bvashr x n) (asr x (bv2nat n)))))

;; lsl_bv_is_lsl
  (assert
  (forall ((x (_ BitVec 32)) (n (_ BitVec 32)))
  (= (bvshl x n) (lsl x (bv2nat n)))))

;; rotate_left_bv_is_rotate_left
  (assert
  (forall ((v (_ BitVec 32)) (n (_ BitVec 32)))
  (= (bvor (bvshl v (bvurem n (_ bv32 32))) (bvlshr v (bvsub (_ bv32 32) (bvurem n (_ bv32 32)))))
  (rotate_left1 v (bv2nat n)))))

;; rotate_right_bv_is_rotate_right
  (assert
  (forall ((v (_ BitVec 32)) (n (_ BitVec 32)))
  (= (bvor (bvlshr v (bvurem n (_ bv32 32))) (bvshl v (bvsub (_ bv32 32) (bvurem n (_ bv32 32)))))
  (rotate_right1 v (bv2nat n)))))

(declare-fun nth_bv ((_ BitVec 32) (_ BitVec 32)) Bool)

;; nth_bv_def
  (assert
  (forall ((x (_ BitVec 32)) (i (_ BitVec 32)))
  (= (= (nth_bv x i) true)
  (not (= (bvand (bvlshr x i) #x00000001) #x00000000)))))

;; Nth_bv_is_nth
  (assert
  (forall ((x (_ BitVec 32)) (i (_ BitVec 32)))
  (= (nth x (bv2nat i)) (nth_bv x i))))

;; Nth_bv_is_nth2
  (assert
  (forall ((x (_ BitVec 32)) (i Int))
  (=> (and (<= 0 i) (< i 4294967296))
  (= (nth_bv x ((_ int2bv 32) i)) (nth x i)))))

(declare-fun eq_sub_bv ((_ BitVec 32) (_ BitVec 32) (_ BitVec 32)
  (_ BitVec 32)) Bool)

;; eq_sub_bv_def
  (assert
  (forall ((a (_ BitVec 32)) (b (_ BitVec 32)) (i (_ BitVec 32))
  (n (_ BitVec 32)))
  (let ((mask (bvshl (bvsub (bvshl #x00000001 n) #x00000001) i)))
  (= (eq_sub_bv a b i n) (= (bvand b mask) (bvand a mask))))))

(define-fun eq_sub ((a (_ BitVec 32)) (b (_ BitVec 32)) (i Int)
  (n Int)) Bool (forall ((j Int))
                (=> (and (<= i j) (< j (+ i n))) (= (nth a j) (nth b j)))))

;; eq_sub_equiv
  (assert
  (forall ((a (_ BitVec 32)) (b (_ BitVec 32)) (i (_ BitVec 32))
  (n (_ BitVec 32)))
  (= (eq_sub a b (bv2nat i) (bv2nat n)) (eq_sub_bv a b i n))))

(declare-datatypes () ((t__ref (mk_t__ref (t__content (_ BitVec 32))))))
(declare-fun power ((_ BitVec 32) Int) (_ BitVec 32))

(define-fun bv_min ((x (_ BitVec 32))
  (y (_ BitVec 32))) (_ BitVec 32) (ite (bvule x y) x y))

(define-fun bv_max ((x (_ BitVec 32))
  (y (_ BitVec 32))) (_ BitVec 32) (ite (bvule x y) y x))

(declare-sort positive 0)

(define-fun in_range ((x Int)) Bool (and (<= 1 x) (<= x 2147483647)))

(declare-fun attr__ATTRIBUTE_IMAGE (Int) us_image)

(declare-fun attr__ATTRIBUTE_VALUE__pre_check (us_image) Bool)

(declare-fun attr__ATTRIBUTE_VALUE (us_image) Int)

(declare-fun user_eq (positive positive) Bool)

(declare-const dummy positive)

(declare-datatypes ()
((positive__ref (mk_positive__ref (positive__content positive)))))
(define-fun positive__ref___projection ((a positive__ref)) positive (positive__content
                                                                    a))

(define-fun dynamic_invariant ((temp___expr_39 Int) (temp___is_init_36 Bool)
  (temp___skip_constant_37 Bool)
  (temp___do_toplevel_38 Bool)) Bool (=>
                                     (or (= temp___is_init_36 true)
                                     (<= 1 2147483647)) (in_range
                                     temp___expr_39)))

(declare-sort hash_type 0)

(declare-const attr__ATTRIBUTE_MODULUS (_ BitVec 32))

(declare-fun attr__ATTRIBUTE_IMAGE1 ((_ BitVec 32)) us_image)

(declare-fun attr__ATTRIBUTE_VALUE__pre_check1 (us_image) Bool)

(declare-fun attr__ATTRIBUTE_VALUE1 (us_image) (_ BitVec 32))

(declare-fun user_eq1 (hash_type hash_type) Bool)

(declare-const dummy1 hash_type)

(declare-datatypes ()
((hash_type__ref (mk_hash_type__ref (hash_type__content hash_type)))))
(define-fun hash_type__ref___projection ((a hash_type__ref)) hash_type
  (hash_type__content a))

(define-fun dynamic_invariant1 ((temp___expr_168 (_ BitVec 32))
  (temp___is_init_165 Bool) (temp___skip_constant_166 Bool)
  (temp___do_toplevel_167 Bool)) Bool true)

(declare-sort count_type 0)

(define-fun in_range1 ((x Int)) Bool (and (<= 0 x) (<= x 2147483647)))

(declare-fun attr__ATTRIBUTE_IMAGE2 (Int) us_image)

(declare-fun attr__ATTRIBUTE_VALUE__pre_check2 (us_image) Bool)

(declare-fun attr__ATTRIBUTE_VALUE2 (us_image) Int)

(declare-fun user_eq2 (count_type count_type) Bool)

(declare-const dummy2 count_type)

(declare-datatypes ()
((count_type__ref (mk_count_type__ref (count_type__content count_type)))))
(define-fun count_type__ref___projection ((a count_type__ref)) count_type
  (count_type__content a))

(declare-const max Int)

(declare-const attr__ATTRIBUTE_ADDRESS Int)

(define-fun dynamic_invariant2 ((temp___expr_174 Int)
  (temp___is_init_171 Bool) (temp___skip_constant_172 Bool)
  (temp___do_toplevel_173 Bool)) Bool (=>
                                      (or (= temp___is_init_171 true)
                                      (<= 0 2147483647)) (in_range1
                                      temp___expr_174)))

(declare-fun default_modulus (Int) (_ BitVec 32))

(declare-fun default_modulus__function_guard ((_ BitVec 32) Int) Bool)

;; default_modulus__post_axiom
  (assert
  (forall ((capacity Int))
  (! (=> (dynamic_invariant2 capacity true true true) (dynamic_invariant1
     (default_modulus capacity) true false true)) :pattern ((default_modulus
                                                            capacity)) )))

(declare-const r258s (_ BitVec 32))

(declare-const attr__ATTRIBUTE_ADDRESS1 Int)

;; max__def_axiom
  (assert (= max 100))

(assert
;; WP_parameter_def
 ;; File "find_map.ads", line 36, characters 0-0
  (not true))
(check-sat)
(exit)
